p cnf 61 223
-3 4 -5 0
3 -4 -5 0
-3 -4 5 0
3 4 5 0
6 -2 0
6 5 0
2 -5 -6 0
1 6 -7 0
-1 -6 -7 0
1 -6 7 0
-1 6 7 0
-10 -8 0
-10 -9 0
8 9 10 0
11 -4 0
11 10 0
4 -10 -11 0
-11 10 -12 0
11 -10 -12 0
-11 -10 12 0
11 10 12 0
-13 -4 0
-13 12 0
4 -12 13 0
-14 -6 0
-14 -13 0
6 13 14 0
-16 14 0
-16 -15 0
-14 15 16 0
-18 17 0
-18 -11 0
-17 11 18 0
-19 16 0
-19 18 0
-16 -18 19 0
20 15 0
20 5 0
-15 -5 -20 0
-22 20 0
-22 21 0
-20 -21 22 0
-24 -23 0
-24 5 0
23 -5 24 0
-21 -24 -25 0
21 24 -25 0
-21 24 25 0
21 -24 25 0
25 -11 -26 0
-25 11 -26 0
25 11 26 0
-25 -11 26 0
-27 12 0
-27 -26 0
-12 26 27 0
26 21 -28 0
-26 -21 -28 0
26 -21 28 0
-26 21 28 0
-29 -28 0
-29 -14 0
28 14 29 0
9 -21 -30 0
-9 21 -30 0
9 21 30 0
-9 -21 30 0
31 -29 0
31 30 0
29 -30 -31 0
32 -28 0
32 9 0
28 -9 -32 0
-33 -17 0
-33 9 0
17 -9 33 0
34 -32 0
34 -33 0
32 33 -34 0
-35 -31 0
-35 34 0
31 -34 35 0
-27 -35 -36 0
27 35 -36 0
-27 35 36 0
27 -35 36 0
37 -22 0
37 -36 0
22 36 -37 0
38 -19 0
38 -37 0
19 37 -38 0
-39 13 0
-39 -8 0
-13 8 39 0
40 -2 0
40 -26 0
2 26 -40 0
41 39 0
41 40 0
-39 -40 -41 0
41 8 -42 0
-41 -8 -42 0
41 -8 42 0
-41 8 42 0
-6 -20 -43 0
6 20 -43 0
-6 20 43 0
6 -20 43 0
-44 11 0
-44 -43 0
-11 43 44 0
45 9 0
45 -10 0
-9 10 -45 0
44 -45 -46 0
-44 45 -46 0
44 45 46 0
-44 -45 46 0
-42 -46 -47 0
42 46 -47 0
-42 46 47 0
42 -46 47 0
11 -4 -48 0
-11 4 -48 0
11 4 48 0
-11 -4 48 0
49 -12 0
49 -39 0
12 39 -49 0
-21 49 -50 0
21 -49 -50 0
-21 -49 50 0
21 49 50 0
-48 50 -51 0
48 -50 -51 0
-48 -50 51 0
48 50 51 0
52 9 0
52 6 0
-9 -6 -52 0
53 -51 0
53 52 0
51 -52 -53 0
-54 5 0
-54 -3 0
-5 3 54 0
55 53 0
55 54 0
-53 -54 -55 0
-47 -55 -56 0
47 55 -56 0
-47 55 56 0
47 -55 56 0
-13 -3 -57 0
13 3 -57 0
-13 3 57 0
13 -3 57 0
-58 -57 0
-58 -29 0
57 29 58 0
-56 -58 -59 0
56 58 -59 0
-56 58 59 0
56 -58 59 0
60 38 0
60 -59 0
-38 59 -60 0
61 -7 0
61 60 0
7 -60 -61 0
2 -20 28 36 41 0
-5 10 -29 0
48 4 22 45 -21 0
57 2 0
3 47 -27 -59 0
45 -2 -61 0
-14 -26 36 -22 0
-50 52 30 34 -26 0
-43 35 11 0
52 32 0
34 16 -5 8 -17 -56 0
32 -3 -58 42 -26 -14 0
59 -52 -21 -4 2 0
37 31 0
31 22 53 12 0
-6 -57 42 -51 0
56 39 44 0
12 -20 -7 10 -48 45 0
15 55 29 5 -47 4 0
12 -52 8 -47 0
-21 7 41 0
30 -23 0
-23 -27 0
-48 12 57 0
41 -55 0
-47 -20 0
-27 -15 -49 0
-37 -17 46 52 55 0
-35 -41 -16 -6 0
-4 31 0
14 45 -16 37 0
12 8 0
57 -48 0
-20 -30 -13 38 -56 0
-56 -59 20 0
-51 -3 0
-43 -45 -16 0
-59 -19 17 37 -18 -16 0
-59 51 -18 -37 35 0
-46 -4 0
9 10 0
38 25 54 52 0
15 8 46 35 0
-22 -53 18 0
-18 20 0
-32 -15 0
51 -12 57 -6 0
-54 -42 15 0
-29 7 17 -44 0
-19 7 51 0
13 54 -59 24 0
61 0
